p edge 100 1000
e 1 6
e 1 27
e 1 33
e 1 38
e 1 41
e 1 49
e 1 54
e 1 65
e 1 73
e 1 87
e 1 91
e 1 99
e 2 3
e 2 6
e 2 40
e 3 43
e 3 65
e 3 81
e 3 86
e 4 30
e 4 54
e 4 94
e 5 1
e 5 3
e 5 11
e 5 24
e 5 37
e 5 60
e 5 65
e 5 77
e 5 78
e 5 96
e 6 36
e 6 57
e 6 70
e 7 17
e 7 27
e 7 87
e 8 6
e 8 17
e 8 24
e 8 32
e 8 49
e 8 62
e 8 63
e 8 97
e 9 1
e 9 51
e 9 69
e 9 70
e 9 77
e 9 94
e 10 1
e 10 6
e 10 37
e 10 42
e 11 42
e 11 72
e 11 96
e 11 99
e 12 16
e 12 34
e 12 94
e 12 98
e 13 1
e 13 10
e 13 14
e 13 21
e 13 34
e 13 77
e 13 89
e 14 22
e 14 72
e 14 90
e 14 94
e 15 22
e 15 47
e 15 56
e 15 57
e 15 79
e 15 89
e 15 100
e 16 9
e 16 18
e 16 34
e 16 52
e 16 58
e 16 64
e 16 78
e 16 97
e 17 8
e 17 20
e 17 24
e 17 29
e 17 39
e 17 41
e 17 45
e 17 65
e 17 73
e 17 77
e 17 85
e 18 75
e 19 29
e 19 33
e 19 37
e 20 6
e 20 51
e 21 1
e 21 6
e 21 7
e 21 13
e 21 17
e 21 22
e 21 27
e 21 38
e 21 41
e 21 54
e 21 64
e 21 81
e 21 89
e 22 66
e 23 61
e 24 6
e 24 14
e 24 86
e 24 90
e 24 98
e 25 12
e 25 14
e 25 16
e 25 41
e 25 67
e 25 85
e 25 87
e 26 5
e 26 15
e 26 37
e 26 40
e 27 94
e 28 12
e 28 30
e 28 44
e 28 45
e 28 46
e 28 53
e 29 31
e 29 39
e 29 45
e 29 66
e 29 67
e 29 72
e 29 76
e 29 83
e 30 7
e 30 77
e 31 6
e 31 31
e 31 90
e 32 24
e 32 44
e 32 53
e 32 59
e 32 69
e 32 82
e 32 94
e 33 1
e 33 21
e 33 30
e 33 37
e 33 38
e 33 49
e 33 75
e 33 87
e 34 2
e 34 7
e 34 22
e 34 67
e 35 37
e 35 68
e 35 73
e 35 86
e 36 22
e 36 26
e 36 35
e 36 40
e 36 44
e 36 54
e 36 69
e 36 78
e 36 93
e 36 94
e 36 97
e 37 37
e 37 45
e 37 56
e 37 68
e 37 77
e 38 32
e 38 34
e 38 62
e 38 91
e 39 21
e 39 48
e 39 58
e 39 69
e 39 78
e 39 85
e 40 10
e 40 38
e 40 76
e 40 86
e 41 14
e 41 17
e 41 22
e 41 58
e 41 69
e 41 77
e 42 32
e 42 50
e 42 85
e 42 86
e 42 89
e 43 1
e 43 5
e 43 30
e 43 41
e 43 88
e 43 89
e 44 20
e 44 53
e 44 64
e 44 80
e 44 82
e 45 9
e 45 23
e 45 47
e 45 56
e 45 62
e 45 75
e 46 10
e 46 19
e 46 93
e 47 40
e 48 1
e 48 9
e 48 21
e 48 22
e 48 30
e 48 80
e 48 83
e 48 94
e 48 98
e 49 12
e 49 16
e 49 25
e 49 34
e 49 55
e 49 79
e 49 87
e 49 89
e 49 97
e 50 28
e 50 73
e 50 87
e 51 85
e 52 6
e 52 30
e 52 33
e 52 50
e 52 53
e 52 70
e 52 96
e 52 98
e 53 2
e 53 65
e 53 73
e 53 83
e 54 23
e 54 33
e 54 34
e 54 47
e 54 62
e 54 76
e 55 3
e 55 14
e 55 28
e 55 58
e 55 67
e 56 24
e 56 30
e 56 54
e 56 87
e 56 90
e 57 5
e 57 52
e 57 61
e 57 66
e 57 68
e 57 85
e 57 94
e 57 96
e 58 98
e 59 9
e 59 46
e 59 73
e 59 86
e 59 89
e 60 6
e 60 15
e 60 20
e 60 27
e 60 34
e 60 58
e 60 61
e 61 1
e 61 17
e 61 20
e 61 30
e 61 49
e 61 73
e 62 6
e 62 98
e 63 9
e 63 35
e 63 46
e 64 2
e 64 37
e 64 53
e 64 65
e 64 66
e 64 99
e 65 9
e 65 14
e 65 55
e 65 71
e 65 78
e 66 8
e 66 20
e 66 25
e 66 98
e 67 15
e 67 58
e 67 78
e 67 89
e 68 47
e 68 51
e 68 75
e 68 83
e 69 13
e 69 71
e 69 73
e 70 1
e 70 41
e 70 81
e 70 86
e 71 24
e 71 53
e 71 65
e 71 69
e 71 82
e 72 10
e 72 28
e 72 38
e 72 62
e 72 70
e 72 74
e 72 78
e 72 94
e 73 1
e 73 9
e 73 17
e 73 29
e 73 40
e 73 57
e 73 61
e 73 83
e 74 9
e 74 69
e 74 77
e 74 90
e 75 54
e 75 81
e 76 6
e 76 10
e 76 18
e 76 33
e 77 9
e 77 14
e 77 19
e 77 21
e 77 23
e 77 25
e 77 57
e 77 63
e 77 92
e 78 31
e 78 32
e 78 94
e 79 11
e 79 18
e 79 27
e 79 28
e 79 34
e 79 48
e 80 47
e 80 66
e 80 77
e 80 86
e 80 98
e 81 57
e 81 63
e 81 69
e 81 73
e 81 75
e 81 77
e 81 81
e 81 94
e 82 27
e 82 49
e 82 57
e 82 70
e 82 71
e 82 98
e 83 1
e 83 10
e 83 29
e 83 66
e 83 98
e 84 9
e 84 14
e 84 16
e 84 19
e 84 22
e 84 30
e 84 32
e 84 40
e 84 52
e 84 54
e 84 64
e 84 75
e 84 87
e 84 98
e 85 13
e 85 19
e 85 20
e 85 73
e 85 74
e 85 75
e 85 77
e 86 21
e 86 30
e 86 62
e 86 66
e 86 81
e 86 91
e 87 1
e 87 7
e 87 21
e 87 37
e 87 46
e 87 69
e 87 72
e 87 95
e 88 13
e 88 14
e 88 46
e 88 76
e 88 81
e 88 98
e 89 17
e 89 43
e 89 71
e 89 77
e 89 95
e 89 98
e 90 23
e 90 31
e 90 43
e 91 1
e 91 5
e 91 32
e 91 39
e 91 41
e 91 43
e 91 80
e 91 96
e 92 14
e 92 24
e 92 54
e 92 56
e 92 74
e 92 100
e 93 1
e 93 6
e 93 66
e 93 93
e 94 33
e 94 90
e 95 23
e 95 60
e 96 23
e 96 42
e 96 70
e 96 84
e 96 95
e 97 21
e 97 35
e 97 42
e 97 49
e 97 87
e 98 42
e 98 46
e 98 56
e 98 57
e 98 59
e 98 65
e 98 82
e 98 93
e 99 24
e 99 34
e 99 67
e 99 76
e 99 90
e 100 19
e 100 62
e 100 67
e 100 85
e 100 89
